Reproduction of the Original Problem/Instances/S2-10/S2-5-10-2-s.txt
     200      10    0.05
       3       3       1       2       1       2       2       2       2       3      13      11       1       8       2       9      14      15       6       7       2
       1       3       1       1       3       2       3       3       2       2      15       9      11       9       0       5       0       7       5      13       2
       2       1       1       3       3       3       3       1       3       3       4       6      14      16      11       5       6      11      15       6       1
       3       2       2       3       3       2       1       1       3       2       1      14       7       1      11       6      13       2       8      16       1
       2       1       1       2       1       1       2       2       2       3      13      11       5       3      12      12      10       9       9      12       1
       2       1       2       2       2       1       2       2       2       2       9      15       3       8      13      16      14      12      10      14       1
       3       1       2       2       2       3       1       3       1       2       5      10       3      11      14      13       7       8      10       4       2
       3       2       2       2       3       3       3       1       3       1      16       3       3      10       0       6      11       6       2       3       2
       1       2       2       1       2       3       1       3       2       1      12       7      11       4       2      16       8      11       8       9       1
       2       1       1       2       1       2       3       3       1       3       8       0       2       9      13       3      16       3      16       2       1
       1       1       1       2       2       2       1       3       3       3       3       8       3       4      16      10      11       0       6       5       1
       2       1       2       2       2       3       1       3       3       2       4       3      16       1       7       9       7       7       1       6       2
       1       2       2       2       1       1       2       2       2       1      14       3       5      14      15       8      11       7      13       5       2
       1       1       3       1       1       2       2       3       3       2       2      11       3       1       6       3       8       3       0       5       1
       2       2       2       1       3       2       3       1       3       3       5       6       3      14       0       4       6       7       0       0       1
       1       2       1       1       1       3       3       3       2       2       5       9      15       1      11      15       0       2      11       0       1
       1       3       2       2       2       1       3       1       3       3       7       1      13      10      13      16      15      16       0       4       1
       1       1       3       1       3       1       2       3       2       3       8       3      14       4       1      15       4      16       8       6       2
       2       3       1       3       2       3       3       2       3       2       7       3       8       0       5      14       8      11      11       2       2
       2       3       1       1       3       1       2       1       2       2       6       0       6      12      16      12      16       6       3      15       1
       1       2       2       1       3       2       2       1       2       3      14      16      15       5       7       8      10       8       6       3       2
       2       3       1       1       3       1       3       1       3       3      11       0       4       6       3       5      12      15      14       9       1
       3       2       3       3       3       3       2       2       2       2       0       7      11       6       9      12       7      13       1      16       1
       3       3       2       1       3       1       2       2       3       2       4      15       1       9       9       5      16       2      14       7       1
       3       2       3       2       2       2       2       3       1       3       8      13      12      12       4      14       8       0       9       0       2
       1       1       2       2       2       2       1       1       1       3       1       5      10      15       3       1       1       3      16      15       2
       3       3       3       1       3       1       3       1       3       2       8       9       5       5       3      16      14       4      14       0       2
       1       3       3       1       1       3       3       3       3       3      11       4       5       9      12      16      10      13       2      12       1
       3       3       1       2       2       3       1       3       3       2      16       7       6       3       2       2       2       1      11       6       2
       3       1       1       1       1       2       1       2       2       3       0       1       8      15      16       0      16      12       7      11       1
       1       3       1       2       2       1       2       2       3       3       5      12       5      11      13       0       7      16       1      14       1
       1       1       3       1       1       2       2       2       1       3       1      16       6       1      13       0       4       2      15       0       1
       1       1       1       1       2       3       3       3       1       2       4      15      14      13       2       9       2      16      14       1       1
       2       1       3       1       2       3       2       2       3       1      14      16       2       3       1       5       5       0       8      13       2
       3       3       1       2       2       3       2       2       2       3      16      14       7       7      11      14       7      15       9       9       2
       1       3       2       3       1       1       3       2       3       2       6       9       7       7      15       5      13      11       6       6       1
       3       1       2       2       2       2       1       2       1       1       9       4      14       7       4      15       6       5       3       2       1
       2       3       3       3       3       1       1       3       2       2       5       0      16      12      16       1      14       1       3       1       1
       3       2       2       1       2       1       3       1       3       3       3      11      15      11       4       7      13      12      11       9       2
       1       2       2       1       2       2       2       1       3       2       8      14      13       4      13      11      14       7      10      13       2
       3       1       3       1       1       2       2       2       1       1      15       0       0      14      12       1      10       5      13       7       2
       2       3       3       1       1       2       1       3       1       1      11      10       5      15       5       9       5       8       8       5       1
       2       3       3       3       1       3       1       3       1       2      11      15      10      16       2      12       4       6       5       0       1
       2       1       2       3       3       2       1       2       1       2      10       8       1       7       3       2      11       2       5       4       1
       1       1       2       2       1       2       3       3       1       1      12       7      16       9       7       6      13       3       5      12       2
       3       2       2       2       3       3       1       2       2       1       3       6      10       9      15       1      14       1       9       5       1
       3       3       1       2       3       1       2       3       2       2      11      13       1      12      13      12       7       4       6      11       1
       2       3       2       2       3       1       1       1       1       1       6       0       4      11       1       9       2       1       1       8       1
       3       1       3       3       1       3       2       3       1       3       5       6      16      16       8      12       1      12       0      15       2
       3       2       1       2       1       3       3       3       1       3       5       2       8       0      12       2       0       6       3      13       1
       2       2       3       3       3       3       2       1       1       1      10       6      15       7      14      16       0      11       7       8       2
       2       1       2       1       1       1       1       2       3       1      15       0      12       3       1      12       5      13       8      13       1
       3       1       1       1       2       1       1       1       3       3       0       8      16       1      13      12       9      11      15      11       2
       3       2       1       1       3       1       2       3       2       3       0       8      15      16       9      14       9      16       3      10       1
       2       3       1       2       2       2       1       1       1       2       9       1      15      15      15      12       2       8       2      12       1
       1       1       1       3       1       3       2       2       3       2       3       0      11      15      11      14       2       8      15      12       2
       1       1       1       2       3       1       2       1       1       1       8       4      15       3       2       5      16      15      12      12       1
       1       2       2       1       3       3       3       2       1       1       6       5       8       6       6      12       1       8      10      13       2
       1       3       3       3       3       3       1       1       2       1       4      12      10       3       5      11       9       9       2      12       2
       3       1       1       1       2       2       3       1       2       1      11       7      11      13       3       0      13      16      13       6       2
       2       3       1       3       3       2       2       2       1       1       5       2      13      15       3       6       8       8       1      14       2
       2       2       1       3       1       1       1       3       3       3       7       2      11       9       2      11       4       5       4      14       1
       2       3       2       1       3       2       3       1       2       3       5      11      15       8       9       9      10       4       0       4       2
       3       2       2       2       1       1       2       2       3       3      16       1      16       5      12       8       4      15      10       4       1
       1       3       1       3       2       3       3       3       3       3      16      14      10      11      11       7       8      14       1      15       1
       3       3       1       3       1       2       3       3       3       2       1      14      13      15       5      12       4       8      12      10       1
       3       2       3       2       1       2       3       1       1       3       9      12       9      15       7      13      15       6       5       2       1
       3       1       3       3       1       2       1       1       3       2       7       6      10      12       8       1      12       5       1      14       1
       1       1       3       2       1       1       2       1       3       2       5       3       0      16       3       0      14       9      11       9       1
       2       3       3       2       1       3       1       2       2       1       0      11       9       6       9       1       8       0       2       6       2
       1       2       2       1       2       2       3       1       3       3       8       7       7      10       5      10      11       6       8      14       1
       3       2       3       2       2       3       1       1       3       2       1       3       2      14      11       3       0       5      12      11       1
       2       3       3       2       3       2       2       3       1       2       8       5       3       1      14       1      12       3       9       2       2
       2       2       2       1       2       2       2       3       3       3       3      14       4      15       1       8      15       9      16      12       1
       2       1       3       1       2       2       3       2       1       3       0       3      11       8      10      15       2       3       1      11       1
       1       3       1       2       1       2       2       1       3       1       2       4       3       7       9       9       8       4       4      10       1
       1       3       3       3       3       1       2       3       3       2      13       4       4      14      11       4       7       6       9      15       1
       1       2       3       3       3       1       3       3       2       1      16       3       2      13       9       7       9       0       9      11       1
       1       3       3       1       1       3       3       1       2       2       4       9       0      12       8      15      15      14      12       2       2
       1       2       1       2       1       1       3       2       1       1       5      15       7       7       7       9      15       6      13      14       1
       1       2       2       1       1       2       1       2       1       1       9       5      15       8       4       7       1      12       9      16       1
       1       3       3       2       3       2       3       2       3       1      14       1       9      13       2      10       3      15      15       9       1
       2       2       1       3       3       1       3       3       2       3      10       2       1      14       8       6      13       7       0      12       2
       3       2       2       3       3       3       3       2       2       3       9      11       9       1      15      13      15       9       2       5       2
       2       3       2       1       2       1       1       3       1       1      14       0      12      12      12       6      13       6      16       1       2
       3       1       1       3       1       2       2       1       1       2      15       2       7       6       7       0      15       6       6       9       2
       1       1       3       1       3       3       1       3       2       3       6      16       4       2       0       1      11       0       3       0       1
       3       1       3       3       1       1       1       2       1       3       5       9      15      11       3       3      11      15       8       1       2
       1       2       1       3       3       3       3       1       3       2      16      16      14      11       9      13      12      15      15      12       1
       3       1       2       1       3       2       1       2       2       2       7      15      11       2       0      13      14       6      11       2       1
       3       3       3       3       1       3       3       3       2       1      13      10      16       4      12      12       7       1      15       0       2
       2       2       2       3       3       3       1       1       3       2       2      16      15      14      13      11       7      13       2       7       1
       2       2       3       3       2       1       1       3       1       1      14       9       4      13       0      11       1      10      13       6       1
       1       1       1       3       2       3       2       3       2       1      11       9       1       8       0      12      14      14      12      10       2
       2       3       2       1       3       1       1       1       3       2       6      14      16      13       3       3      16       7       5      16       2
       1       1       3       1       2       3       1       2       3       2      12      12      12       3      13      11       8       6       4       7       1
       2       1       3       2       3       3       3       3       2       1       3       6       8       3       6       9       9      14       1       3       1
       2       1       3       2       2       1       1       3       3       3       1       4      13      14       2       2      14      16      12       7       2
       1       1       3       1       3       3       3       2       1       2       9       3       2       5      11       3       5       1      16       9       2
       3       3       1       3       3       2       2       1       3       3      12       8       2      10       0      11      14      11       2       9       1
       1       2       3       3       2       3       3       3       3       2       2       4      12      16      11      11       1       4       0       7       2
       3       1       1       1       1       2       1       3       1       1       2      13      10      11       7       7      15      14      12       5       2
       1       2       3       2       3       2       2       1       2       1       4       2       8       3       2       1       1       0       5      11       2
       3       2       3       1       3       3       3       1       1       1       6      11       0      11       9      14       2       5      14       9       1
       3       3       2       2       3       1       3       1       2       3      12       4      10       5       8       6      15       0      14       8       2
       3       2       3       3       1       2       1       3       2       1      16      14       2       9       9      15       9       2      12       6       1
       1       1       3       3       2       2       2       1       1       2       9       1      16      12      14       1      16       6      13       8       2
       2       1       1       1       2       1       2       3       2       1      14       4       9       4      14       1       5      13      15       5       2
       3       2       1       1       2       2       1       2       1       2       5      16       3      11      12       0       3      12       0      11       1
       3       3       3       1       2       3       3       1       3       3      16       9      16      10      12       1      12       6      12       3       2
       1       1       2       1       1       3       1       2       1       3       8      14       4       1       9       6      10       0       9       4       1
       3       1       3       2       3       1       3       2       3       2      11      10       8      16       4       5       0      15      15       5       1
       1       1       3       2       2       1       3       2       3       3      15       4       5      12      11      13      10      15      12       6       2
       2       1       3       3       3       3       2       2       3       2      16      10       5       6       5      13      16       1       3      16       2
       2       1       3       2       2       3       3       1       2       3       0      13       3       1      10      10      15      16       5       7       2
       1       1       3       1       3       1       3       1       1       3       9       0       0      11       1      13      11       6      15      14       2
       3       2       3       1       2       1       3       1       3       1      13       2       9       5      12       2       4      14      12      10       1
       3       2       1       1       3       1       3       1       2       3       8       0       2       0       1      11      15       6       4       3       2
       2       2       2       1       2       1       2       1       3       3      16      14       9       3       5      13       7       5       9      11       2
       1       2       2       1       1       3       2       2       2       1       0       7       4      12      13      10      12      10       9       9       2
       1       2       2       1       3       3       2       1       2       1       7       0       6      11       2      16       2       6       4       4       1
       1       3       3       3       3       3       1       2       2       3       7       5      15       4      16       8       1      11       7       9       1
       3       1       1       3       1       3       3       1       2       2      11      13       6       6      14       6       1      15      15       5       2
       1       1       1       1       2       2       3       3       3       1      16       0      16       5       0       9       8      11      10       6       1
       2       2       2       2       3       2       2       1       3       3       8      10       7      15      11       6       8       3       9       8       2
       3       1       1       3       1       2       3       3       1       1      11       5       6      15       7       2       7      15       5      11       2
       2       1       2       3       1       2       1       1       1       2       3       2       4      15       1      11      15      13       9       7       2
       3       3       1       1       3       1       1       3       3       3      12      15      14       7      16       8       0      10       5      12       2
       3       3       2       3       1       3       1       2       3       1       6       6       0      10      12      16      13      11      10      12       2
       1       1       3       2       3       1       1       1       1       1      15      12      12      16       3       5      14      10       1       9       2
       3       2       2       2       2       2       3       2       1       1       8      16       0      12       0       3      14       7       9      11       1
       3       3       2       2       2       3       1       1       1       2       7      15       3       1       0       4      16      10       9       0       2
       2       2       1       3       2       3       1       2       1       1       2       7       8       1       8       5       5       7      12       6       2
       2       2       1       2       1       2       2       3       2       3      13       6       3       2       5      15       3      15       5       9       1
       3       3       1       2       3       1       2       1       1       1      12       8       8      14       2       7       0       8       5       9       1
       1       1       2       3       1       2       1       3       2       1       6      14      11      13       4       3       1      13       3       4       1
       2       1       3       2       1       1       3       2       2       3       3       2      12      11      14       6      14       9       4       9       1
       2       1       3       1       3       1       2       3       1       2       0       3       6      13       1      14       6      15      15       2       1
       3       1       3       1       1       1       1       2       2       3       9       0       6      15       3      10       9       9       0      10       1
       2       2       3       2       3       1       1       1       3       2       8       0       5       2      11       9       4      15       0       2       1
       3       3       1       2       1       2       3       3       2       1       3      15      15       7       5      11      15      10       2       6       2
       3       3       1       2       1       3       2       3       2       2       0      12       5      10      13       8       3      11       0       1       2
       1       1       1       2       1       3       3       1       1       3      13       0       4      11       6       5      13       4       9       1       2
       1       3       2       2       3       3       3       3       2       1       7      14      12       5       0      13       8       2       3      15       1
       2       3       3       1       1       1       1       2       3       2      15       6       8      11       1       1      12       7      11       1       2
       3       2       2       2       2       1       2       1       1       2      16      14       4       1       1       7       0      15      14      12       2
       1       2       2       2       2       3       3       2       3       3      12      13       2      15      14      13       9      10       0      16       1
       2       1       3       3       3       1       2       2       2       1       7       3       3      11       5       1       5       3       6      12       1
       2       1       3       1       3       3       1       1       2       2       5      10      11       4       6       5       3       8      16       3       2
       1       1       1       1       2       1       1       2       1       2      16       8      10       6       0      15      12      15       0      16       1
       3       2       3       1       2       2       2       1       2       1       4       5       1      15       4       5      12      15       8       5       2
       2       1       3       1       1       1       2       1       2       2      10       2      14      13      15      14       6       9      16      14       2
       3       3       3       3       2       2       3       2       1       2       4      14       9      11       3      10       4       0      13       4       2
       3       3       1       2       1       3       1       1       1       2      13       3       9       3       9       0      12       4      14      15       2
       1       1       2       3       2       1       2       3       2       2      14       1       9       1      13       2      15       7       7       4       2
       3       1       2       3       1       1       1       2       1       3       9       4      12       0       2       5       4      16      10      14       1
       1       1       2       2       1       2       2       2       1       2      13      12       0       0       8       0      16       3       4       7       1
       3       1       2       2       2       2       2       3       1       2       3       8      16      14       9      15       5       3       1       6       2
       2       3       3       2       2       2       3       3       2       3       1       2       4       9       0       4       4       6      14      10       2
       1       1       1       1       1       2       1       1       3       1      14       9       1       0       5       8       4       5       7       9       1
       2       1       2       1       1       1       1       1       2       3      15       7       2       8       8       5       1       5       2       8       2
       3       1       3       1       1       2       1       2       2       2       4       0       3       6       7       1      10      14      10      14       2
       1       2       2       2       3       3       2       1       3       1       4       3      12       5       0       5      12      12      11      13       1
       3       2       3       3       1       2       1       2       3       3      11      12       4       1       9       4       2      10       9       7       2
       2       3       2       3       1       3       3       2       3       1      16      12      10       8       0      14       7       8       1       7       2
       1       1       1       3       3       3       2       1       3       3       2       5       0       9       6       7      10       3      16      11       1
       1       3       2       1       3       1       1       2       3       3       5      10       3       6       2      13      10       7       8       8       2
       2       2       2       2       3       2       2       2       1       3       0       5       8      15       8      13       0       0       9       3       2
       1       2       1       3       2       2       3       1       3       1       2      11       7       5      16       5      16      10      14      13       2
       1       3       3       1       2       1       1       1       2       1       9       5      11      13       6       2      11       5       9       7       1
       3       3       1       1       3       2       1       3       2       3      12       4      12      12       7       6       9      13       1       1       1
       3       2       2       3       3       3       2       2       2       2       4       7       9       0      15       4       8       0       7       6       2
       2       1       3       2       2       2       3       2       3       2      14      11       3      15      14      15       7      14      15       0       2
       2       2       2       2       1       1       2       1       1       1       7       4       7      14      15      13       1      14       6       1       2
       2       1       2       1       1       3       1       3       3       2      13       2       5      15       3      12       5       8      16      16       1
       2       3       2       1       1       2       1       2       1       2       2       9      16      15       2       7       2      12      12       1       2
       2       1       1       3       3       1       1       2       3       2      14       3       0      14       2       4       7       7       1      12       1
       3       2       2       2       3       3       2       2       2       1       7      12      10       5      11      15       0      15      12       2       1
       3       3       2       3       3       1       2       2       1       2       4       5       1      14       8       6      16       2       0       7       1
       3       3       1       3       2       1       3       2       2       2       4      13       8      12       2      12      11       9      12       6       2
       1       3       2       2       2       3       3       2       3       2      10      14       4       9       5      15       6      16       7      12       1
       1       3       1       2       1       2       1       3       2       1      14       7       2       1       5      15       0       7       2       8       2
       1       1       2       3       3       3       2       3       3       1       9      11       3       1       1       2      11       5       1       5       1
       1       1       3       1       2       3       2       3       1       1       2      10       5       8      10      12      16       7      10      12       1
       1       1       1       3       2       2       2       2       2       2       0       6      11      13      16      10      13      10       3      12       2
       3       1       2       3       1       2       2       2       1       3       6       4      14      10      14      15       9       0       2       3       2
       2       1       1       2       2       2       3       2       2       3       6       2       4       4      13       4       7       7      12      10       2
       3       1       3       3       1       1       1       1       3       3      12       6      14      12      11      14      14       8       5       5       1
       3       2       2       2       2       1       1       1       3       3       4       8       0       8      12       0      16       9       5       7       2
       3       2       3       1       3       3       2       3       3       1       7      15      10      11       4      12       1       8      13      12       2
       1       1       2       1       3       2       3       2       1       2      15      13      13      11      14       1      11       3      13       6       2
       3       2       2       2       1       2       3       3       3       3       8      12       5      11      11       2       0       8      15       2       2
       3       3       1       2       3       2       1       1       1       3      11       8       4      10      11       4       3       8       3      16       2
       3       3       2       2       2       2       3       3       3       2       9      10       4      14       4       3      14      10      13      16       2
       1       3       1       3       2       1       2       2       2       1      13       5      10       4      12       1       2       1      12       6       2
       1       3       2       3       1       1       3       2       1       1      15       3       3       5      16       7       5      13       3       0       1
       3       2       1       1       2       3       3       2       3       1       4      14      16       7       2       1       9       4       0       7       2
       2       1       3       1       1       1       2       1       1       1       0       8       7      16       1       9       4      10       3       7       1
       1       1       3       2       2       1       3       3       2       1      10       3       0      16       1      11       6      15      16      16       2
       3       2       2       1       3       3       1       1       3       1      14       6       7       6       1      12       9       2       4       1       1
      59      34      37      38      40      31      53      34      40      57
     119      72      90      93      91      76     116      71     118     118
     239     162     191     149     191     171     227     101     156     270